Cu C O
      1.0000000
     10.2240000      0.0000000      0.0000000
      0.0000000     10.2240000      0.0000000
      0.0000000      0.0000000     30.0000000
          64           1           1
Direct
    0.0000000    0.0000000    0.0000000 
    0.0000000    0.2500000    0.0000000 
    0.0000000    0.5000000    0.0000000 
    0.0000000    0.7500000    0.0000000 
    0.2500000    0.0000000    0.0000000 
    0.2500000    0.2500000    0.0000000 
    0.2500000    0.5000000    0.0000000 
    0.2500000    0.7500000    0.0000000 
    0.5000000    0.0000000    0.0000000 
    0.5000000    0.2500000    0.0000000 
    0.5000000    0.5000000    0.0000000 
    0.5000000    0.7500000    0.0000000 
    0.7500000    0.0000000    0.0000000 
    0.7500000    0.2500000    0.0000000 
    0.7500000    0.5000000    0.0000000 
    0.7500000    0.7500000    0.0000000 
    0.1249990    0.1249990    0.0602450 
    0.1249990    0.3749990    0.0602450 
    0.1249990    0.6249990    0.0602450 
    0.1249990    0.8749990    0.0602450 
    0.3749990    0.1249990    0.0602450 
    0.3749990    0.3749990    0.0602450 
    0.3749990    0.6249990    0.0602450 
    0.3749990    0.8749990    0.0602450 
    0.6249990    0.1249990    0.0602450 
    0.6249990    0.3749990    0.0602450 
    0.6249990    0.6249990    0.0602450 
    0.6249990    0.8749990    0.0602450 
    0.8749990    0.1249990    0.0602450 
    0.8749990    0.3749990    0.0602450 
    0.8749990    0.8749990    0.0602450 
    0.8749990    0.6249990    0.0602450 
    0.9998414    0.9998414    0.1217118 
    0.0002895    0.2498743    0.1216088 
    0.0002894    0.5001234    0.1216088 
    0.9998393    0.7501595    0.1217103 
    0.2498743    0.0002895    0.1216088 
    0.2513729    0.2513729    0.1222672 
    0.2513668    0.4986358    0.1222616 
    0.2498748    0.7497102    0.1216094 
    0.5001234    0.0002894    0.1216088 
    0.4986358    0.2513668    0.1222616 
    0.4986418    0.4986418    0.1222560 
    0.5001229    0.7497103    0.1216094 
    0.7501595    0.9998393    0.1217103 
    0.7497102    0.2498748    0.1216094 
    0.7497103    0.5001229    0.1216094 
    0.7501617    0.7501617    0.1217088 
    0.1250262    0.1250276    0.1808644 
    0.1223740    0.3749212    0.1812473 
    0.1249561    0.6250607    0.1808498 
    0.1254784    0.8749981    0.1809984 
    0.3749417    0.1224067    0.1812467 
    0.3750765    0.3751155    0.1854173 
    0.3749415    0.6278558    0.1812479 
    0.3749980    0.8749815    0.1810132 
    0.6250398    0.1249755    0.1808526 
    0.6278238    0.3749202    0.1812465 
    0.6251109    0.6251138    0.1808380 
    0.6245322    0.8749977    0.1810009 
    0.8749985    0.1254821    0.1809974 
    0.8749825    0.3749983    0.1810133 
    0.8749832    0.8749771    0.1811879 
    0.8749984    0.6245352    0.1809960 
    0.3718532    0.3704435    0.2469758 
    0.3773872    0.3779976    0.2855335 
