Cu C O
      1.0000000
     10.2240000      0.0000000      0.0000000
      0.0000000     10.2240000      0.0000000
      0.0000000      0.0000000     30.0000000
          64           1           1
Direct
    0.0000000    0.0000000    0.0000000 
    0.0000000    0.2500000    0.0000000 
    0.0000000    0.5000000    0.0000000 
    0.0000000    0.7500000    0.0000000 
    0.2500000    0.0000000    0.0000000 
    0.2500000    0.2500000    0.0000000 
    0.2500000    0.5000000    0.0000000 
    0.2500000    0.7500000    0.0000000 
    0.5000000    0.0000000    0.0000000 
    0.5000000    0.2500000    0.0000000 
    0.5000000    0.5000000    0.0000000 
    0.5000000    0.7500000    0.0000000 
    0.7500000    0.0000000    0.0000000 
    0.7500000    0.2500000    0.0000000 
    0.7500000    0.5000000    0.0000000 
    0.7500000    0.7500000    0.0000000 
    0.1249990    0.1249990    0.0602450 
    0.1249990    0.3749990    0.0602450 
    0.1249990    0.6249990    0.0602450 
    0.1249990    0.8749990    0.0602450 
    0.3749990    0.1249990    0.0602450 
    0.3749990    0.3749990    0.0602450 
    0.3749990    0.6249990    0.0602450 
    0.3749990    0.8749990    0.0602450 
    0.6249990    0.1249990    0.0602450 
    0.6249990    0.3749990    0.0602450 
    0.6249990    0.6249990    0.0602450 
    0.6249990    0.8749990    0.0602450 
    0.8749990    0.1249990    0.0602450 
    0.8749990    0.3749990    0.0602450 
    0.8749990    0.8749990    0.0602450 
    0.8749990    0.6249990    0.0602450 
    0.9998414    0.9998414    0.1217118 
    0.0002895    0.2498743    0.1216088 
    0.0002894    0.5001234    0.1216088 
    0.9998393    0.7501595    0.1217103 
    0.2498743    0.0002895    0.1216088 
    0.2513729    0.2513729    0.1222672 
    0.2513668    0.4986358    0.1222616 
    0.2498748    0.7497102    0.1216094 
    0.5001234    0.0002894    0.1216088 
    0.4986358    0.2513668    0.1222616 
    0.4986418    0.4986418    0.1222560 
    0.5001229    0.7497103    0.1216094 
    0.7501595    0.9998393    0.1217103 
    0.7497102    0.2498748    0.1216094 
    0.7497103    0.5001229    0.1216094 
    0.7501617    0.7501617    0.1217088 
    0.1249568    0.1249567    0.1808504 
    0.1222669    0.3750064    0.1812447 
    0.1249575    0.6250404    0.1808494 
    0.1254718    0.8750018    0.1809986 
    0.3750043    0.1222636    0.1812448 
    0.3749807    0.3749768    0.1853962 
    0.3750043    0.6277131    0.1812452 
    0.3749989    0.8750004    0.1810107 
    0.6250425    0.1249555    0.1808492 
    0.6277163    0.3750065    0.1812454 
    0.6250417    0.6250414    0.1808482 
    0.6245253    0.8750018    0.1809972 
    0.8750018    0.1254714    0.1809987 
    0.8750004    0.3749989    0.1810107 
    0.8750007    0.8750013    0.1811860 
    0.8750018    0.6245250    0.1809977 
    0.3758643    0.3760052    0.2469734 
    0.3756677    0.3756067    0.2855452 
