SYSTEM=COCu
EDIFF=1E-05
EDIFFG=0.01
ISMEAR=1
SIGMA=0.1
IBRION=5
POTIM=0.02
NSW=200

ENCUT=400
LREAL= Auto
