Cu C O                                  
   1.00000000000000     
    10.2813199999999991    0.0000000000000000    0.0000000000000000
     0.0000000000000000   10.2813199999999991    0.0000000000000000
     0.0000000000000000    0.0000000000000000   30.0000000000000000
    64     1     1
Selective
Direct
 -0.0001902956611856 -0.0001902956611856  0.0005519200395748  F  F  F
  0.0001247679705366  0.2500462782188345  0.0005407705585576  F  F  F
  0.0001247679705366  0.4999546408071302  0.0005407705585576  F  F  F
 -0.0001902956611856  0.7501912146871503  0.0005519200395748  F  F  F
  0.2500462782188345  0.0001247679705366  0.0005407705585576  F  F  F
  0.2499634262512408  0.2499634262512408  0.0005589178463148  F  F  F
  0.2499634262512408  0.5000374927747240  0.0005589178463148  F  F  F
  0.2500462782188345  0.7498761510554282  0.0005407705585576  F  F  F
  0.4999546408071302  0.0001247679705366  0.0005407705585576  F  F  F
  0.5000374927747240  0.2499634262512408  0.0005589178463148  F  F  F
  0.5000374927747240  0.5000374927747240  0.0005589178463148  F  F  F
  0.4999546408071302  0.7498761510554282  0.0005407705585576  F  F  F
  0.7501912146871503 -0.0001902956611856  0.0005519200395748  F  F  F
  0.7498761510554282  0.2500462782188345  0.0005407705585576  F  F  F
  0.7498761510554282  0.4999546408071302  0.0005407705585576  F  F  F
  0.7501912146871503  0.7501912146871503  0.0005519200395748  F  F  F
  0.1251344226112230  0.1251344226112230  0.0599957794938223  F  F  F
  0.1249629982256371  0.3750004595129823  0.0599205267521977  F  F  F
  0.1251344226112230  0.6248664964147417  0.0599957794938223  F  F  F
  0.1251268302746113  0.8750010721969588  0.0600093634599380  F  F  F
  0.3750004595129823  0.1249629982256371  0.0599205267521977  F  F  F
  0.3750004595129823  0.3750004595129823  0.0600069320004927  F  F  F
  0.3750004595129823  0.6250379208003277  0.0599205267521977  F  F  F
  0.3750004595129823  0.8750010721969588  0.0600061478719778  F  F  F
  0.6248664964147417  0.1251344226112230  0.0599957794938223  F  F  F
  0.6250379208003277  0.3750004595129823  0.0599205267521977  F  F  F
  0.6248664964147417  0.6248664964147417  0.0599957794938223  F  F  F
  0.6248740887513533  0.8750010721969588  0.0600093634599380  F  F  F
  0.8750010721969588  0.1251268302746113  0.0600093634599380  F  F  F
  0.8750010721969588  0.3750004595129823  0.0600061478719778  F  F  F
  0.8750010721969588  0.6248740887513533  0.0600093634599380  F  F  F
  0.8750010721969588  0.8750010721969588  0.0599520323836894  F  F  F
 -0.0000097944442217 -0.0000097944442217  0.1217383784367082  F  F  F
  0.0000087654043422  0.2499930706501849  0.1217531873931470  F  F  F
  0.0000087654043422  0.5000078483757796  0.1217531873931470  F  F  F
 -0.0000097944442217  0.7500107134701863  0.1217383784367082  F  F  F
  0.2499930706501849  0.0000087654043422  0.1217531873931470  F  F  F
  0.2502481474231292  0.2502481474231292  0.1216800303969804  F  F  F
  0.2502481474231292  0.4997527716028354  0.1216800303969804  F  F  F
  0.2499930706501849  0.7499921536216224  0.1217531873931470  F  F  F
  0.5000078483757796  0.0000087654043422  0.1217531873931470  F  F  F
  0.4997527716028354  0.2502481474231292  0.1216800303969804  F  F  F
  0.4997527716028354  0.4997527716028354  0.1216800303969804  F  F  F
  0.5000078483757796  0.7499921536216224  0.1217531873931470  F  F  F
  0.7500107134701863 -0.0000097944442217  0.1217383784367082  F  F  F
  0.7499921536216224  0.2499930706501849  0.1217531873931470  F  F  F
  0.7499921536216224  0.5000078483757796  0.1217531873931470  F  F  F
  0.7500107134701863  0.7500107134701863  0.1217383784367082  F  F  F
  0.1248967846976003  0.1248967846976003  0.1811130892227662  T  T  T
  0.1239288146740146  0.3750004595129823  0.1811535585734821  T  T  T
  0.1248967846976003  0.6251041343283645  0.1811130892227662  T  T  T
  0.1250578276804478  0.8750010721969588  0.1811837889826787  T  T  T
  0.3750004595129823  0.1239288146740146  0.1811535585734821  T  T  T
  0.3750004595129823  0.3750004595129823  0.1844886434323404  T  T  T
  0.3750004595129823  0.6260721043519500  0.1811535585734821  T  T  T
  0.3750004595129823  0.8750010721969588  0.1812351497609778  T  T  T
  0.6251041343283645  0.1248967846976003  0.1811130892227662  T  T  T
  0.6260721043519500  0.3750004595129823  0.1811535585734821  T  T  T
  0.6251041343283645  0.6251041343283645  0.1811130892227662  T  T  T
  0.6249430913455171  0.8750010721969588  0.1811837889826787  T  T  T
  0.8750010721969588  0.1250578276804478  0.1811837889826787  T  T  T
  0.8750010721969588  0.3750004595129823  0.1812351497609778  T  T  T
  0.8750010721969588  0.6249430913455171  0.1811837889826787  T  T  T
  0.8750010721969588  0.8750010721969588  0.1812185832572688  T  T  T
  0.3750004595129823  0.3750004595129823  0.2458130293823195  T  T  T
  0.3750004595129823  0.3750004595129823  0.2843651078465250  T  T  T
