SYSTEM=COCu
EDIFF=1E-05
ISMEAR=1
SIGMA=0.1
IBRION=-1
ISYM=0
ENCUT=400
LREAL= Auto
