Cu C O                                  
   1.00000000000000     
    10.2240000000000002    0.0000000000000000    0.0000000000000000
     0.0000000000000000   10.2240000000000002    0.0000000000000000
     0.0000000000000000    0.0000000000000000   30.0000000000000000
64   1   1
car
 0.0000000000000000    0.0000000000000000    0.0000000000000000  
 0.0000000000000000    2.5560000000000000    0.0000000000000000  
 0.0000000000000000    5.1120000000000001    0.0000000000000000  
 0.0000000000000000    7.6680000000000001    0.0000000000000000  
 2.5560000000000000    0.0000000000000000    0.0000000000000000  
 2.5560000000000000    2.5560000000000000    0.0000000000000000  
 2.5560000000000000    5.1120000000000001    0.0000000000000000  
 2.5560000000000000    7.6680000000000001    0.0000000000000000  
 5.1120000000000001    0.0000000000000000    0.0000000000000000  
 5.1120000000000001    2.5560000000000000    0.0000000000000000  
 5.1120000000000001    5.1120000000000001    0.0000000000000000  
 5.1120000000000001    7.6680000000000001    0.0000000000000000  
 7.6680000000000001    0.0000000000000000    0.0000000000000000  
 7.6680000000000001    2.5560000000000000    0.0000000000000000  
 7.6680000000000001    5.1120000000000001    0.0000000000000000  
 7.6680000000000001    7.6680000000000001    0.0000000000000000  
 1.2779899999999933    1.2779899999999933    1.8073499999999854  
 1.2779899999999933    3.8339899999999933    1.8073499999999854  
 1.2779899999999933    6.3899899999999930    1.8073499999999854  
 1.2779899999999933    8.9459899999999930    1.8073499999999854  
 3.8339899999999933    1.2779899999999933    1.8073499999999854  
 3.8339899999999933    3.8339899999999933    1.8073499999999854  
 3.8339899999999933    6.3899899999999930    1.8073499999999854  
 3.8339899999999933    8.9459899999999930    1.8073499999999854  
 6.3899899999999930    1.2779899999999933    1.8073499999999854  
 6.3899899999999930    3.8339899999999933    1.8073499999999854  
 6.3899899999999930    6.3899899999999930    1.8073499999999854  
 6.3899899999999930    8.9459899999999930    1.8073499999999854  
 8.9459899999999930    1.2779899999999933    1.8073499999999854  
 8.9459899999999930    3.8339899999999933    1.8073499999999854  
 8.9459899999999930    8.9459899999999930    1.8073499999999854  
 8.9459899999999930    6.3899899999999930    1.8073499999999854  
10.2223780188197200   10.2223780188197200    3.6513535375372919  
 0.0029602906666067    2.5547149413095323    3.6482643188743991  
 0.0029587774440865    5.1132618841862572    3.6482636973574856  
10.2223567767424868    7.6696314306377928    3.6513095530766293  
 2.5547149413095323    0.0029602906666067    3.6482643188743991  
 2.5700371067167249    2.5700371067167249    3.6680151916402925  
 2.5699743161691826    5.0980515662244779    3.6678477810257970  
 2.5547196852539384    7.6650369658139494    3.6482813208369880  
 5.1132618841862572    0.0029587774440865    3.6482636973574856  
 5.0980515662244779    2.5699743161691826    3.6678477810257970  
 5.0981141646968346    5.0981141646968346    3.6676801951174332  
 5.1132569334843065    7.6650382330963165    3.6482807590705457  
 7.6696314306377928   10.2223567767424868    3.6513095530766293  
 7.6650369658139494    2.5547196852539384    3.6482813208369880  
 7.6650382330963165    5.1132569334843065    3.6482807590705457  
 7.6696529247627083    7.6696529247627083    3.6512654640172970  
 1.2776229861733648    1.2776229861733648    5.4255507397685072  
 1.2501560109219696    3.8339861427958457    5.4373480720011447  
 1.2775639632094560    6.3904320834210298    5.4254843742919467  
 1.2828295113498747    8.9460148708327516    5.4299577123191867  
 3.8339861427958457    1.2501560109219696    5.4373480720011447  
 3.8338918036856509    3.8338918036856509    5.5619441258753604  
 3.8339858491943239    6.4178707983294876    5.4373643553976425  
 3.8339879580989820    8.9459871469015564    5.4303291457236469  
 6.3904320834210298    1.2775639632094560    5.4254843742919467  
 6.4178707983294876    3.8339858491943239    5.4373643553976425  
 6.3904913440083053    6.3904913440083053    5.4254181175568350  
 6.3851525197759731    8.9460148890310691    5.4299251885065125  
 8.9460148708327516    1.2828295113498747    5.4299577123191867  
 8.9459871469015564    3.8339879580989820    5.4303291457236469  
 8.9459905331674854    8.9459905331674854    5.4355838874212186  
 8.9460148890310691    6.3851525197759731    5.4299251885065125  
 3.8391079296717088    3.8391079296717088    7.4092081909644314  
 3.8424250386431886    3.8424250386431886    8.5663225958006137  



