Cu C O
      1.0000000
     10.2240000      0.0000000      0.0000000
      0.0000000     10.2240000      0.0000000
      0.0000000      0.0000000     30.0000000
          64           1           1
Direct
    0.0000000    0.0000000    0.0000000 
    0.0000000    0.2500000    0.0000000 
    0.0000000    0.5000000    0.0000000 
    0.0000000    0.7500000    0.0000000 
    0.2500000    0.0000000    0.0000000 
    0.2500000    0.2500000    0.0000000 
    0.2500000    0.5000000    0.0000000 
    0.2500000    0.7500000    0.0000000 
    0.5000000    0.0000000    0.0000000 
    0.5000000    0.2500000    0.0000000 
    0.5000000    0.5000000    0.0000000 
    0.5000000    0.7500000    0.0000000 
    0.7500000    0.0000000    0.0000000 
    0.7500000    0.2500000    0.0000000 
    0.7500000    0.5000000    0.0000000 
    0.7500000    0.7500000    0.0000000 
    0.1249990    0.1249990    0.0602450 
    0.1249990    0.3749990    0.0602450 
    0.1249990    0.6249990    0.0602450 
    0.1249990    0.8749990    0.0602450 
    0.3749990    0.1249990    0.0602450 
    0.3749990    0.3749990    0.0602450 
    0.3749990    0.6249990    0.0602450 
    0.3749990    0.8749990    0.0602450 
    0.6249990    0.1249990    0.0602450 
    0.6249990    0.3749990    0.0602450 
    0.6249990    0.6249990    0.0602450 
    0.6249990    0.8749990    0.0602450 
    0.8749990    0.1249990    0.0602450 
    0.8749990    0.3749990    0.0602450 
    0.8749990    0.8749990    0.0602450 
    0.8749990    0.6249990    0.0602450 
    0.9998414    0.9998414    0.1217118 
    0.0002895    0.2498743    0.1216088 
    0.0002894    0.5001234    0.1216088 
    0.9998393    0.7501595    0.1217103 
    0.2498743    0.0002895    0.1216088 
    0.2513729    0.2513729    0.1222672 
    0.2513668    0.4986358    0.1222616 
    0.2498748    0.7497102    0.1216094 
    0.5001234    0.0002894    0.1216088 
    0.4986358    0.2513668    0.1222616 
    0.4986418    0.4986418    0.1222560 
    0.5001229    0.7497103    0.1216094 
    0.7501595    0.9998393    0.1217103 
    0.7497102    0.2498748    0.1216094 
    0.7497103    0.5001229    0.1216094 
    0.7501617    0.7501617    0.1217088 
    0.1249000    0.1248986    0.1808390 
    0.1221792    0.3750761    0.1812426 
    0.1249586    0.6250238    0.1808491 
    0.1254664    0.8750048    0.1809988 
    0.3750556    0.1221465    0.1812432 
    0.3749024    0.3748634    0.1853789 
    0.3750558    0.6275963    0.1812430 
    0.3749997    0.8750159    0.1810087 
    0.6250447    0.1249392    0.1808463 
    0.6276283    0.3750770    0.1812444 
    0.6249851    0.6249822    0.1808566 
    0.6245197    0.8750052    0.1809941 
    0.8750045    0.1254627    0.1809998 
    0.8750150    0.3749993    0.1810087 
    0.8750150    0.8750211    0.1811843 
    0.8750045    0.6245166    0.1809990 
    0.3791460    0.3805557    0.2469714 
    0.3742609    0.3736505    0.2855547 
