Cu C O
      1.0000000
     10.2240000      0.0000000      0.0000000
      0.0000000     10.2240000      0.0000000
      0.0000000      0.0000000     30.0000000
          64           1           1
Direct
    0.0000000    0.0000000    0.0000000 
    0.0000000    0.2500000    0.0000000 
    0.0000000    0.5000000    0.0000000 
    0.0000000    0.7500000    0.0000000 
    0.2500000    0.0000000    0.0000000 
    0.2500000    0.2500000    0.0000000 
    0.2500000    0.5000000    0.0000000 
    0.2500000    0.7500000    0.0000000 
    0.5000000    0.0000000    0.0000000 
    0.5000000    0.2500000    0.0000000 
    0.5000000    0.5000000    0.0000000 
    0.5000000    0.7500000    0.0000000 
    0.7500000    0.0000000    0.0000000 
    0.7500000    0.2500000    0.0000000 
    0.7500000    0.5000000    0.0000000 
    0.7500000    0.7500000    0.0000000 
    0.1249990    0.1249990    0.0602450 
    0.1249990    0.3749990    0.0602450 
    0.1249990    0.6249990    0.0602450 
    0.1249990    0.8749990    0.0602450 
    0.3749990    0.1249990    0.0602450 
    0.3749990    0.3749990    0.0602450 
    0.3749990    0.6249990    0.0602450 
    0.3749990    0.8749990    0.0602450 
    0.6249990    0.1249990    0.0602450 
    0.6249990    0.3749990    0.0602450 
    0.6249990    0.6249990    0.0602450 
    0.6249990    0.8749990    0.0602450 
    0.8749990    0.1249990    0.0602450 
    0.8749990    0.3749990    0.0602450 
    0.8749990    0.8749990    0.0602450 
    0.8749990    0.6249990    0.0602450 
    0.9998414    0.9998414    0.1217118 
    0.0002895    0.2498743    0.1216088 
    0.0002894    0.5001234    0.1216088 
    0.9998393    0.7501595    0.1217103 
    0.2498743    0.0002895    0.1216088 
    0.2513729    0.2513729    0.1222672 
    0.2513668    0.4986358    0.1222616 
    0.2498748    0.7497102    0.1216094 
    0.5001234    0.0002894    0.1216088 
    0.4986358    0.2513668    0.1222616 
    0.4986418    0.4986418    0.1222560 
    0.5001229    0.7497103    0.1216094 
    0.7501595    0.9998393    0.1217103 
    0.7497102    0.2498748    0.1216094 
    0.7497103    0.5001229    0.1216094 
    0.7501617    0.7501617    0.1217088 
    0.1249694    0.1249696    0.1808530 
    0.1222863    0.3749909    0.1812452 
    0.1249572    0.6250441    0.1808495 
    0.1254730    0.8750011    0.1809986 
    0.3749929    0.1222896    0.1812451 
    0.3749981    0.3750020    0.1854001 
    0.3749929    0.6277390    0.1812457 
    0.3749987    0.8749970    0.1810112 
    0.6250420    0.1249592    0.1808498 
    0.6277358    0.3749908    0.1812456 
    0.6250543    0.6250546    0.1808463 
    0.6245265    0.8750011    0.1809978 
    0.8750012    0.1254734    0.1809985 
    0.8749971    0.3749988    0.1810112 
    0.8749975    0.8749969    0.1811863 
    0.8750012    0.6245268    0.1809973 
    0.3751350    0.3749940    0.2469738 
    0.3759804    0.3760414    0.2855430 
